p ocr 194 1242 1612
1 195
1 196
2 197
2 198
3 197
3 198
4 198
4 199
3 199
3 200
4 200
3 201
4 201
3 202
4 202
3 203
4 203
3 204
4 204
3 205
4 205
3 206
4 206
3 207
4 207
3 208
4 208
3 209
4 209
3 210
4 210
3 211
4 211
3 212
4 212
3 213
4 213
3 214
4 214
3 215
4 215
3 216
4 216
3 217
4 217
3 218
4 218
3 219
4 219
3 220
4 220
3 221
4 221
3 222
4 222
3 223
4 223
3 224
4 224
3 225
4 225
3 226
4 226
3 227
4 227
3 228
4 228
3 229
4 229
3 230
4 230
3 231
4 231
3 232
4 232
3 233
4 233
3 234
4 234
3 235
4 235
3 236
4 236
3 237
4 237
3 238
4 238
3 239
4 239
3 240
4 240
3 241
4 241
3 242
4 242
3 243
4 243
3 244
4 244
3 245
4 245
3 246
4 246
3 247
4 247
3 248
4 248
3 249
4 249
3 250
4 250
3 251
4 251
3 252
4 252
3 253
4 253
3 254
4 254
3 255
4 255
3 256
4 256
3 257
4 257
3 258
4 258
3 259
4 259
3 260
4 260
3 261
4 261
3 262
4 262
3 263
4 263
3 264
4 264
3 265
4 265
3 266
4 266
3 267
4 267
3 268
4 268
3 269
4 269
3 270
4 270
3 271
4 271
3 272
4 272
3 273
4 273
3 274
4 274
3 275
4 275
3 276
4 276
3 277
4 277
3 278
4 278
3 279
4 279
3 280
4 280
3 281
4 281
3 282
4 282
3 283
4 283
3 284
4 284
3 285
4 285
3 286
4 286
3 287
4 287
3 288
4 288
3 289
4 289
3 290
4 290
3 291
4 291
3 292
4 292
3 293
4 293
3 294
4 294
3 295
4 295
3 296
4 296
3 297
4 297
3 298
4 298
3 299
4 299
3 300
4 300
3 301
4 301
3 302
4 302
3 303
4 303
3 304
4 304
3 305
4 305
3 306
4 306
3 307
4 307
3 308
4 308
3 309
4 309
3 310
4 310
3 311
4 311
3 312
4 312
3 313
4 313
3 314
4 314
3 315
4 315
3 316
4 316
3 317
4 317
3 318
4 318
3 319
4 319
3 320
4 320
3 321
4 321
3 322
4 322
3 323
4 323
3 324
4 324
3 325
4 325
3 326
4 326
3 327
4 327
3 328
4 328
3 329
4 329
3 330
4 330
3 331
4 331
3 332
4 332
3 333
4 333
3 334
4 334
3 335
4 335
3 336
4 336
3 337
4 337
3 338
4 338
3 339
4 339
3 340
4 340
3 341
4 341
3 342
4 342
3 343
4 343
3 344
4 344
3 345
4 345
3 346
4 346
3 347
4 347
3 348
4 348
3 349
4 349
3 350
4 350
3 351
4 351
3 352
4 352
3 353
4 353
3 354
4 354
3 355
4 355
3 356
4 356
3 357
4 357
3 358
4 358
3 359
4 359
3 360
4 360
3 361
4 361
3 362
4 362
3 363
4 363
3 364
4 364
3 365
4 365
3 366
4 366
3 367
4 367
3 368
4 368
3 369
4 369
3 370
4 370
3 371
4 371
3 372
4 372
3 373
4 373
3 374
4 374
4 375
4 376
6 376
7 376
8 376
9 376
10 376
11 376
4 377
4 378
4 379
4 380
4 381
4 382
4 383
12 383
13 383
14 383
15 383
16 383
4 384
16 384
4 385
4 386
4 387
4 388
4 389
17 389
18 389
4 390
11 390
4 391
11 391
4 392
19 392
20 392
11 392
4 393
4 394
11 394
4 395
4 396
4 397
4 398
4 399
21 399
22 399
11 399
23 399
4 400
4 401
11 401
4 402
4 403
4 404
4 405
4 406
18 406
4 407
18 407
4 408
4 409
4 410
18 410
4 411
4 412
4 413
4 414
24 414
4 415
4 416
4 417
11 417
4 418
4 419
4 420
4 421
4 422
4 423
18 423
4 424
25 424
4 425
4 426
4 427
4 428
4 429
4 430
4 431
3 432
4 432
4 433
4 434
4 435
18 435
11 435
4 436
4 437
3 438
4 438
3 439
4 439
3 440
4 440
3 441
4 441
3 442
4 442
3 443
4 443
3 444
4 444
3 445
4 445
3 446
4 446
3 447
4 447
3 448
4 448
4 449
4 450
4 451
11 451
4 452
4 453
4 454
4 455
4 456
4 457
4 458
4 459
4 460
4 461
4 462
4 463
4 464
4 465
4 466
4 467
4 468
4 469
4 470
4 471
4 472
4 473
4 474
4 475
4 476
4 477
4 478
4 479
18 479
4 480
24 480
4 481
4 482
4 483
11 483
4 484
4 485
4 486
4 487
4 488
4 489
4 490
24 490
4 491
4 492
4 493
24 493
4 494
4 495
4 496
4 497
11 497
4 498
4 499
4 500
4 501
4 502
4 503
4 504
4 505
25 505
4 506
4 507
4 508
4 509
4 510
4 511
4 512
4 513
4 514
4 515
4 516
4 517
4 518
4 519
4 520
4 521
4 522
4 523
4 524
4 525
4 526
4 527
4 528
4 529
4 530
4 531
4 532
26 532
2 532
27 532
17 532
28 532
29 532
30 532
13 532
14 532
31 532
4 533
4 534
4 535
4 536
4 537
11 537
4 538
4 539
4 540
4 541
4 542
4 543
32 543
4 544
32 544
33 544
4 545
4 546
4 547
4 548
4 549
34 549
4 550
4 551
4 552
4 553
4 554
35 554
4 555
4 556
11 556
4 557
4 558
4 559
4 560
4 561
36 561
32 561
4 562
4 563
4 564
4 565
4 566
4 567
4 568
4 569
4 570
4 571
4 572
4 573
4 574
11 574
4 575
4 576
3 577
4 577
4 578
4 579
4 580
11 580
4 581
4 582
4 583
4 584
4 585
4 586
4 587
4 588
4 589
4 590
37 590
4 591
4 592
4 593
4 594
4 595
4 596
4 597
4 598
4 599
4 600
4 601
4 602
4 603
4 604
4 605
4 606
4 607
4 608
4 609
4 610
4 611
4 612
4 613
4 614
4 615
4 616
4 617
4 618
3 619
4 619
4 620
4 621
4 622
11 622
4 623
4 624
4 625
4 626
4 627
4 628
4 629
4 630
4 631
4 632
38 632
12 632
4 633
4 634
4 635
4 636
4 637
4 638
11 638
4 639
11 639
4 640
4 641
4 642
4 643
4 644
4 645
4 646
4 647
4 648
4 649
4 650
24 650
32 650
28 650
39 650
4 651
4 652
4 653
4 654
11 654
4 655
4 656
4 657
4 658
3 659
4 659
12 660
12 661
3 662
4 662
4 663
40 664
40 665
41 666
41 667
4 668
4 669
4 670
4 671
4 672
4 673
4 674
11 674
4 675
4 676
4 677
4 678
4 679
4 680
4 681
4 682
4 683
4 684
4 685
4 686
4 687
4 688
4 689
4 690
4 691
4 692
4 693
4 694
4 695
4 696
4 697
4 698
4 699
4 700
4 701
4 702
4 703
4 704
4 705
4 706
4 707
4 708
4 709
4 710
4 711
4 712
4 713
4 714
4 715
4 716
4 717
4 718
4 719
4 720
4 721
4 722
4 723
4 724
4 725
4 726
4 727
4 728
4 729
4 730
4 731
4 732
4 733
4 734
4 735
4 736
4 737
4 738
4 739
4 740
4 741
4 742
4 743
4 744
4 745
4 746
4 747
4 748
4 749
4 750
4 751
4 752
4 753
4 754
4 755
4 756
4 757
4 758
4 759
4 760
4 761
4 762
4 763
4 764
4 765
4 766
4 767
4 768
4 769
4 770
4 771
4 772
4 773
4 774
4 775
4 776
4 777
4 778
4 779
4 780
4 781
4 782
4 783
4 784
4 785
4 786
4 787
4 788
4 789
4 790
4 791
4 792
4 793
4 794
4 795
4 796
4 797
4 798
4 799
4 800
4 801
4 802
4 803
3 804
4 804
4 805
4 806
4 807
4 808
4 809
4 810
4 811
4 812
4 813
4 814
4 815
4 816
4 817
4 818
4 819
4 820
4 821
4 822
4 824
4 825
4 826
26 827
35 828
11 828
35 829
42 830
42 831
43 832
1 833
44 833
1 834
29 834
4 835
4 836
4 837
4 838
4 839
4 840
4 841
4 842
11 842
4 843
4 844
4 845
4 846
4 847
24 848
45 848
46 849
29 849
4 850
4 851
4 852
4 853
47 853
4 854
4 855
4 856
32 856
4 857
4 858
7 858
48 859
48 860
45 860
49 861
4 862
4 863
4 864
4 865
4 866
4 867
4 868
4 869
4 870
4 871
4 872
50 873
50 874
29 875
51 876
51 877
52 878
53 878
52 879
51 880
54 881
55 882
56 883
8 884
8 885
57 886
58 887
58 888
59 889
59 890
60 891
60 892
61 893
2 894
2 895
2 896
4 896
27 897
9 897
25 897
27 898
25 898
9 898
27 899
25 899
62 899
25 900
62 900
63 900
27 901
28 901
29 901
55 902
44 903
44 904
25 905
62 905
64 906
59 907
29 907
4 908
4 909
32 909
4 910
4 911
4 912
4 913
4 914
4 915
4 916
4 917
4 918
4 919
4 920
4 921
4 922
4 923
4 924
38 924
12 924
4 925
4 926
32 926
4 927
4 928
13 928
65 929
66 930
67 931
67 932
68 933
22 933
69 934
70 935
29 935
71 936
45 936
69 937
62 938
62 939
62 940
25 940
63 940
72 941
73 942
29 943
74 944
74 945
74 946
29 947
29 948
74 949
74 950
74 951
74 952
29 953
29 954
29 955
11 958
29 959
29 960
54 960
74 961
74 962
74 963
74 964
29 965
75 966
75 967
29 968
29 969
76 970
2 971
77 972
2 973
2 974
4 975
32 975
4 976
4 977
4 978
4 979
4 980
4 981
4 982
11 983
4 984
32 984
4 985
4 986
4 987
29 988
29 989
29 990
29 991
74 992
29 993
78 994
79 995
45 995
34 996
34 997
20 998
29 999
29 1000
29 1001
29 1002
29 1003
29 1004
29 1005
17 1006
17 1007
80 1008
81 1009
81 1010
82 1011
83 1012
83 1013
83 1014
84 1015
16 1015
85 1016
29 1017
29 1018
29 1019
29 1020
86 1021
29 1021
28 1022
32 1022
28 1023
32 1023
87 1024
88 1025
89 1026
7 1027
90 1028
45 1028
91 1029
92 1030
93 1031
17 1032
45 1032
94 1033
64 1034
29 1035
29 1036
29 1037
29 1038
29 1039
29 1040
29 1041
29 1042
29 1043
29 1044
95 1045
96 1046
17 1047
17 1048
17 1049
17 1050
97 1051
97 1052
97 1053
29 1054
29 1055
29 1056
2 1057
2 1058
2 1059
2 1060
2 1061
2 1062
11 1062
17 1063
17 1064
17 1065
98 1066
17 1067
29 1068
29 1069
29 1070
29 1071
29 1072
29 1073
29 1074
99 1074
17 1075
53 1076
29 1077
29 1078
100 1079
100 1080
29 1081
29 1082
29 1083
29 1084
100 1085
29 1085
99 1085
29 1086
29 1087
100 1088
31 1088
45 1089
45 1090
101 1091
102 1091
101 1092
102 1092
103 1093
29 1094
104 1095
54 1095
29 1096
104 1097
105 1098
106 1099
104 1100
107 1101
104 1102
108 1103
108 1104
109 1105
29 1106
29 1107
110 1108
29 1109
29 1110
104 1111
111 1111
112 1111
17 1112
45 1112
17 1113
17 1114
17 1115
17 1116
11 1116
45 1117
113 1118
2 1119
29 1120
114 1120
29 1121
29 1122
29 1123
29 1124
29 1125
7 1126
115 1127
116 1128
29 1130
117 1131
104 1132
29 1133
45 1133
29 1134
29 1135
29 1136
118 1137
119 1138
29 1139
120 1140
104 1141
121 1142
122 1142
123 1143
99 1144
99 1145
124 1146
125 1147
125 1148
125 1149
99 1150
29 1151
29 1152
29 1153
29 1154
126 1154
29 1155
127 1156
128 1157
128 1158
129 1159
9 1160
9 1161
130 1162
131 1163
29 1164
29 1165
29 1166
29 1167
29 1168
132 1169
122 1170
133 1171
29 1172
104 1173
134 1174
102 1174
126 1175
135 1176
29 1176
136 1177
136 1178
137 1179
138 1180
137 1181
137 1182
29 1183
139 1183
29 1184
29 1185
29 1186
29 1187
29 1188
99 1189
99 1190
99 1191
29 1192
29 1193
29 1194
18 1195
29 1196
29 1197
29 1198
22 1199
122 1200
104 1201
122 1202
29 1203
140 1204
122 1205
122 1206
111 1206
99 1207
99 1208
141 1209
95 1210
45 1211
45 1212
29 1213
29 1214
29 1215
29 1216
29 1217
29 1218
29 1219
122 1220
29 1221
29 1222
142 1223
142 1224
122 1225
143 1226
29 1227
29 1228
29 1229
122 1230
122 1231
29 1232
29 1233
144 1234
122 1235
29 1236
29 1237
145 1238
29 1238
29 1239
146 1240
29 1241
147 1242
148 1243
148 1244
149 1244
149 1245
29 1246
29 1247
29 1248
150 1250
68 1251
45 1252
45 1253
45 1254
45 1255
151 1256
29 1257
29 1258
29 1259
29 1260
29 1261
152 1262
153 1263
154 1264
155 1265
155 1266
122 1267
122 1268
13 1269
54 1269
122 1270
122 1271
152 1272
29 1273
156 1273
29 1274
29 1275
122 1276
157 1277
158 1278
158 1279
29 1280
29 1281
29 1282
29 1283
29 1284
159 1284
160 1285
161 1286
122 1287
162 1288
159 1288
163 1289
29 1289
29 1290
164 1291
163 1292
29 1293
29 1294
165 1295
29 1295
166 1296
163 1297
167 1298
167 1299
13 1300
5 1300
168 1301
169 1301
97 1302
97 1303
29 1304
29 1305
159 1305
29 1306
29 1307
29 1308
29 1309
29 1310
29 1311
29 1312
170 1313
29 1314
29 1315
29 1316
29 1317
29 1318
171 1318
172 1318
139 1318
29 1319
171 1319
172 1319
139 1319
29 1320
29 1321
102 1321
173 1322
174 1323
11 1324
11 1325
11 1326
175 1327
176 1328
13 1328
14 1329
14 1330
177 1331
29 1332
102 1332
29 1333
29 1334
178 1335
179 1336
180 1337
180 1338
29 1339
29 1340
181 1341
13 1342
182 1343
183 1344
169 1345
184 1346
185 1347
186 1348
187 1349
15 1350
188 1351
54 1352
29 1353
29 1354
29 1355
189 1355
29 1356
190 1357
139 1358
25 1358
139 1359
29 1360
189 1360
172 1361
5 1361
172 1362
5 1362
139 1363
139 1364
191 1365
29 1366
13 1367
29 1368
102 1368
29 1369
102 1369
156 1370
156 1371
29 1372
192 1373
29 1374
29 1375
29 1376
29 1377
22 1377
102 1378
102 1379
29 1380
22 1380
29 1381
29 1382
29 1383
102 1383
22 1384
22 1385
29 1386
102 1386
29 1387
15 1388
16 1388
15 1389
15 1390
16 1390
15 1391
16 1391
15 1392
15 1393
16 1393
15 1394
16 1394
15 1395
16 1395
15 1396
16 1396
15 1397
16 1397
15 1398
15 1399
16 1399
29 1400
104 1401
102 1402
102 1403
193 1404
194 1405
194 1406
194 1407
194 1408
194 1409
194 1410
194 1411
194 1412
194 1413
194 1414
194 1415
194 1416
194 1417
193 1418
193 1419
193 1420
193 1421
193 1422
193 1423
193 1424
102 1425
102 1426
159 1427
159 1428
159 1429
102 1430
159 1431
102 1432
102 1433
102 1434
156 1435
102 1436
